100
150
100
97
95
95
94
94
93
92
92
92
91
89
88
88
88
87
86
86
85
85
83
83
82
81
80
75
75
75
74
74
73
73
72
72
69
69
69
69
69
69
68
68
68
68
66
65
64
63
63
63
63
61
59
59
58
58
57
56
53
52
50
50
49
48
48
46
46
45
44
43
43
42
42
42
42
42
42
41
41
39
38
38
38
37
37
35
34
32
31
30
29
28
28
27
25
24
24
22
21
21
